language Essence 1.3

letting blksize_delta be function(1 --> 5, 2 --> 5, 3 --> 5)
letting maxcars be function(1 --> 8, 2 --> 10, 3 --> 9)
letting n_cars be 197
letting n_classes be 88
letting n_options be 3
letting quantity be
        function(1 --> 5, 2 --> 9, 3 --> 3, 4 --> 2, 5 --> 6, 6 --> 7, 7 --> 2, 8 --> 2, 9 --> 3, 10 --> 2, 11 --> 2,
                 12 --> 2, 13 --> 2, 14 --> 2, 15 --> 2, 16 --> 2, 17 --> 2, 18 --> 2, 19 --> 2, 20 --> 2, 21 --> 2,
                 22 --> 2, 23 --> 2, 24 --> 2, 25 --> 2, 26 --> 2, 27 --> 2, 28 --> 2, 29 --> 2, 30 --> 2, 31 --> 2,
                 32 --> 2, 33 --> 2, 34 --> 2, 35 --> 2, 36 --> 2, 37 --> 2, 38 --> 2, 39 --> 2, 40 --> 2, 41 --> 2,
                 42 --> 2, 43 --> 2, 44 --> 2, 45 --> 2, 46 --> 2, 47 --> 2, 48 --> 2, 49 --> 2, 50 --> 2, 51 --> 2,
                 52 --> 2, 53 --> 2, 54 --> 2, 55 --> 2, 56 --> 2, 57 --> 2, 58 --> 2, 59 --> 2, 60 --> 2, 61 --> 2,
                 62 --> 2, 63 --> 2, 64 --> 2, 65 --> 2, 66 --> 2, 67 --> 2, 68 --> 2, 69 --> 2, 70 --> 2, 71 --> 2,
                 72 --> 2, 73 --> 2, 74 --> 2, 75 --> 2, 76 --> 2, 77 --> 2, 78 --> 2, 79 --> 2, 80 --> 2, 81 --> 2,
                 82 --> 2, 83 --> 2, 84 --> 2, 85 --> 2, 86 --> 2, 87 --> 2, 88 --> 2)
letting usage be
        relation((1, 3), (2, 1), (3, 3), (4, 3), (5, 1), (5, 3), (6, 1), (6, 2), (6, 3), (7, 2), (7, 3), (8, 3), (9, 2),
                 (9, 3), (10, 2), (11, 2), (11, 3), (12, 1), (12, 2), (12, 3), (13, 1), (13, 2), (13, 3), (14, 2),
                 (14, 3), (15, 2), (16, 2), (17, 2), (18, 3), (19, 1), (20, 3), (21, 1), (22, 2), (23, 3), (24, 3),
                 (25, 1), (26, 2), (27, 3), (28, 2), (29, 2), (30, 1), (30, 2), (31, 3), (32, 3), (33, 1), (34, 2),
                 (35, 2), (36, 2), (37, 3), (38, 3), (39, 2), (39, 3), (40, 2), (41, 1), (41, 2), (42, 2), (42, 3),
                 (43, 1), (43, 2), (44, 2), (45, 2), (45, 3), (46, 1), (46, 2), (47, 1), (47, 3), (48, 1), (48, 2),
                 (49, 1), (50, 1), (51, 2), (51, 3), (52, 1), (53, 2), (53, 3), (54, 2), (54, 3), (55, 3), (56, 3),
                 (57, 3), (58, 1), (58, 2), (59, 1), (59, 3), (60, 1), (61, 3), (62, 2), (62, 3), (63, 3), (64, 2),
                 (65, 1), (65, 3), (66, 3), (67, 3), (68, 1), (68, 2), (68, 3), (69, 3), (70, 1), (70, 3), (71, 2),
                 (71, 3), (72, 1), (72, 2), (73, 1), (73, 3), (74, 3), (75, 1), (75, 2), (76, 1), (76, 2), (77, 3),
                 (78, 1), (79, 3), (80, 1), (80, 2), (80, 3), (81, 2), (82, 3), (83, 1), (83, 3), (84, 1), (84, 3),
                 (85, 2), (86, 3), (87, 1), (87, 2), (87, 3), (88, 2), (88, 3))
$ Visualisation for usage
$  1  3
$  2  1
$  3  3
$  4  3
$  5  1
$  5  3
$  6  1
$  6  2
$  6  3
$  7  2
$  7  3
$  8  3
$  9  2
$  9  3
$ 10  2
$ 11  2
$ 11  3
$ 12  1
$ 12  2
$ 12  3
$ 13  1
$ 13  2
$ 13  3
$ 14  2
$ 14  3
$ 15  2
$ 16  2
$ 17  2
$ 18  3
$ 19  1
$ 20  3
$ 21  1
$ 22  2
$ 23  3
$ 24  3
$ 25  1
$ 26  2
$ 27  3
$ 28  2
$ 29  2
$ 30  1
$ 30  2
$ 31  3
$ 32  3
$ 33  1
$ 34  2
$ 35  2
$ 36  2
$ 37  3
$ 38  3
$ 39  2
$ 39  3
$ 40  2
$ 41  1
$ 41  2
$ 42  2
$ 42  3
$ 43  1
$ 43  2
$ 44  2
$ 45  2
$ 45  3
$ 46  1
$ 46  2
$ 47  1
$ 47  3
$ 48  1
$ 48  2
$ 49  1
$ 50  1
$ 51  2
$ 51  3
$ 52  1
$ 53  2
$ 53  3
$ 54  2
$ 54  3
$ 55  3
$ 56  3
$ 57  3
$ 58  1
$ 58  2
$ 59  1
$ 59  3
$ 60  1
$ 61  3
$ 62  2
$ 62  3
$ 63  3
$ 64  2
$ 65  1
$ 65  3
$ 66  3
$ 67  3
$ 68  1
$ 68  2
$ 68  3
$ 69  3
$ 70  1
$ 70  3
$ 71  2
$ 71  3
$ 72  1
$ 72  2
$ 73  1
$ 73  3
$ 74  3
$ 75  1
$ 75  2
$ 76  1
$ 76  2
$ 77  3
$ 78  1
$ 79  3
$ 80  1
$ 80  2
$ 80  3
$ 81  2
$ 82  3
$ 83  1
$ 83  3
$ 84  1
$ 84  3
$ 85  2
$ 86  3
$ 87  1
$ 87  2
$ 87  3
$ 88  2
$ 88  3

